04_frontend_stage/rtl-clk_rst_mgr/formal/clk_rst_mgr_bmc/model/design_smt2.smt2
; SMT-LIBv2 description generated by Yosys 0.65+71 (git sha1 e56c6a954, clang++ 18.1.8 -fPIC -O3)
; yosys-smt2-module clk_rst_mgr
(declare-sort |clk_rst_mgr_s| 0)
(declare-fun |clk_rst_mgr_is| (|clk_rst_mgr_s|) Bool)
; yosys-smt2-anyseq clk_rst_mgr#0 1 $auto$setundef.cc:550:execute$153
; yosys-smt2-witness {"offset": 0, "path": ["\\_witness_", "\\anyseq_auto_setundef_cc_550_execute_153"], "smtname": 0, "smtoffset": 0, "type": "seq", "width": 1}
(declare-fun |clk_rst_mgr#0| (|clk_rst_mgr_s|) (_ BitVec 1)) ; \_witness_.anyseq_auto_setundef_cc_550_execute_153
; yosys-smt2-wire _witness_.anyseq_auto_setundef_cc_550_execute_153 1
(define-fun |clk_rst_mgr_n _witness_.anyseq_auto_setundef_cc_550_execute_153| ((state |clk_rst_mgr_s|)) Bool (= ((_ extract 0 0) (|clk_rst_mgr#0| state)) #b1))
; yosys-smt2-anyseq clk_rst_mgr#1 5 $auto$setundef.cc:550:execute$151
; yosys-smt2-witness {"offset": 0, "path": ["\\_witness_", "\\anyseq_auto_setundef_cc_550_execute_151"], "smtname": 1, "smtoffset": 0, "type": "seq", "width": 5}
(declare-fun |clk_rst_mgr#1| (|clk_rst_mgr_s|) (_ BitVec 5)) ; \_witness_.anyseq_auto_setundef_cc_550_execute_151
; yosys-smt2-wire _witness_.anyseq_auto_setundef_cc_550_execute_151 5
(define-fun |clk_rst_mgr_n _witness_.anyseq_auto_setundef_cc_550_execute_151| ((state |clk_rst_mgr_s|)) (_ BitVec 5) (|clk_rst_mgr#1| state))
; yosys-smt2-anyseq clk_rst_mgr#2 5 $auto$setundef.cc:550:execute$149
; yosys-smt2-witness {"offset": 0, "path": ["\\_witness_", "\\anyseq_auto_setundef_cc_550_execute_149"], "smtname": 2, "smtoffset": 0, "type": "seq", "width": 5}
(declare-fun |clk_rst_mgr#2| (|clk_rst_mgr_s|) (_ BitVec 5)) ; \_witness_.anyseq_auto_setundef_cc_550_execute_149
; yosys-smt2-wire _witness_.anyseq_auto_setundef_cc_550_execute_149 5
(define-fun |clk_rst_mgr_n _witness_.anyseq_auto_setundef_cc_550_execute_149| ((state |clk_rst_mgr_s|)) (_ BitVec 5) (|clk_rst_mgr#2| state))
; yosys-smt2-anyinit clk_rst_mgr#3 3 clk_rst_mgr.v:92.5-107.8
; yosys-smt2-witness {"offset": 0, "path": ["\\_witness_", "\\anyinit_auto_ff_cc_337_slice_110"], "smtname": 3, "smtoffset": 0, "type": "init", "width": 3}
(declare-fun |clk_rst_mgr#3| (|clk_rst_mgr_s|) (_ BitVec 3)) ; \_witness_.anyinit_auto_ff_cc_337_slice_110
; yosys-smt2-register _witness_.anyinit_auto_ff_cc_337_slice_110 3
; yosys-smt2-wire _witness_.anyinit_auto_ff_cc_337_slice_110 3
(define-fun |clk_rst_mgr_n _witness_.anyinit_auto_ff_cc_337_slice_110| ((state |clk_rst_mgr_s|)) (_ BitVec 3) (|clk_rst_mgr#3| state))
; yosys-smt2-anyinit clk_rst_mgr#4 1 clk_rst_mgr.v:55.5-78.8
; yosys-smt2-witness {"offset": 0, "path": ["\\_witness_", "\\anyinit_auto_ff_cc_337_slice_94"], "smtname": 4, "smtoffset": 0, "type": "init", "width": 1}
(declare-fun |clk_rst_mgr#4| (|clk_rst_mgr_s|) (_ BitVec 1)) ; \_witness_.anyinit_auto_ff_cc_337_slice_94
; yosys-smt2-register _witness_.anyinit_auto_ff_cc_337_slice_94 1
; yosys-smt2-wire _witness_.anyinit_auto_ff_cc_337_slice_94 1
(define-fun |clk_rst_mgr_n _witness_.anyinit_auto_ff_cc_337_slice_94| ((state |clk_rst_mgr_s|)) Bool (= ((_ extract 0 0) (|clk_rst_mgr#4| state)) #b1))
; yosys-smt2-anyinit clk_rst_mgr#5 1 clk_rst_mgr.v:83.5-89.8
; yosys-smt2-witness {"offset": 0, "path": ["\\_witness_", "\\anyinit_auto_ff_cc_337_slice_97"], "smtname": 5, "smtoffset": 0, "type": "init", "width": 1}
(declare-fun |clk_rst_mgr#5| (|clk_rst_mgr_s|) (_ BitVec 1)) ; \_witness_.anyinit_auto_ff_cc_337_slice_97
; yosys-smt2-register _witness_.anyinit_auto_ff_cc_337_slice_97 1
; yosys-smt2-wire _witness_.anyinit_auto_ff_cc_337_slice_97 1
(define-fun |clk_rst_mgr_n _witness_.anyinit_auto_ff_cc_337_slice_97| ((state |clk_rst_mgr_s|)) Bool (= ((_ extract 0 0) (|clk_rst_mgr#5| state)) #b1))
; yosys-smt2-anyinit clk_rst_mgr#6 5 clk_rst_mgr.v:55.5-78.8
; yosys-smt2-witness {"offset": 0, "path": ["\\_witness_", "\\anyinit_auto_ff_cc_337_slice_98"], "smtname": 6, "smtoffset": 0, "type": "init", "width": 5}
(declare-fun |clk_rst_mgr#6| (|clk_rst_mgr_s|) (_ BitVec 5)) ; \_witness_.anyinit_auto_ff_cc_337_slice_98
; yosys-smt2-register _witness_.anyinit_auto_ff_cc_337_slice_98 5
; yosys-smt2-wire _witness_.anyinit_auto_ff_cc_337_slice_98 5
(define-fun |clk_rst_mgr_n _witness_.anyinit_auto_ff_cc_337_slice_98| ((state |clk_rst_mgr_s|)) (_ BitVec 5) (|clk_rst_mgr#6| state))
; yosys-smt2-anyinit clk_rst_mgr#7 1 clk_rst_mgr.v:92.5-107.8
; yosys-smt2-witness {"offset": 0, "path": ["\\_witness_", "\\anyinit_procdff_68"], "smtname": 7, "smtoffset": 0, "type": "init", "width": 1}
(declare-fun |clk_rst_mgr#7| (|clk_rst_mgr_s|) (_ BitVec 1)) ; \_witness_.anyinit_procdff_68
; yosys-smt2-register _witness_.anyinit_procdff_68 1
; yosys-smt2-wire _witness_.anyinit_procdff_68 1
(define-fun |clk_rst_mgr_n _witness_.anyinit_procdff_68| ((state |clk_rst_mgr_s|)) Bool (= ((_ extract 0 0) (|clk_rst_mgr#7| state)) #b1))
; yosys-smt2-anyinit clk_rst_mgr#8 1 clk_rst_mgr.v:55.5-78.8
; yosys-smt2-witness {"offset": 0, "path": ["\\_witness_", "\\anyinit_procdff_88"], "smtname": 8, "smtoffset": 0, "type": "init", "width": 1}
(declare-fun |clk_rst_mgr#8| (|clk_rst_mgr_s|) (_ BitVec 1)) ; \_witness_.anyinit_procdff_88
; yosys-smt2-register _witness_.anyinit_procdff_88 1
; yosys-smt2-wire _witness_.anyinit_procdff_88 1
(define-fun |clk_rst_mgr_n _witness_.anyinit_procdff_88| ((state |clk_rst_mgr_s|)) Bool (= ((_ extract 0 0) (|clk_rst_mgr#8| state)) #b1))
; yosys-smt2-anyinit clk_rst_mgr#9 2 clk_rst_mgr.v:42.5-48.8
; yosys-smt2-witness {"offset": 0, "path": ["\\_witness_", "\\anyinit_procdff_93"], "smtname": 9, "smtoffset": 0, "type": "init", "width": 2}
(declare-fun |clk_rst_mgr#9| (|clk_rst_mgr_s|) (_ BitVec 2)) ; \_witness_.anyinit_procdff_93
; yosys-smt2-register _witness_.anyinit_procdff_93 2
; yosys-smt2-wire _witness_.anyinit_procdff_93 2
(define-fun |clk_rst_mgr_n _witness_.anyinit_procdff_93| ((state |clk_rst_mgr_s|)) (_ BitVec 2) (|clk_rst_mgr#9| state))
(declare-fun |clk_rst_mgr#10| (|clk_rst_mgr_s|) Bool) ; \clk_i
; yosys-smt2-input clk_i 1
; yosys-smt2-wire clk_i 1
; yosys-smt2-clock clk_i posedge
; yosys-smt2-witness {"offset": 0, "path": ["\\clk_i"], "smtname": "clk_i", "smtoffset": 0, "type": "posedge", "width": 1}
; yosys-smt2-witness {"offset": 0, "path": ["\\clk_i"], "smtname": "clk_i", "smtoffset": 0, "type": "input", "width": 1}
(define-fun |clk_rst_mgr_n clk_i| ((state |clk_rst_mgr_s|)) Bool (|clk_rst_mgr#10| state))
(declare-fun |clk_rst_mgr#11| (|clk_rst_mgr_s|) (_ BitVec 1)) ; \user_reset_n_i
(define-fun |clk_rst_mgr#12| ((state |clk_rst_mgr_s|)) (_ BitVec 1) (ite (= ((_ extract 0 0) (|clk_rst_mgr#11| state)) #b1) (|clk_rst_mgr#8| state) #b1)) ; \cpu_held
; yosys-smt2-wire cpu_held 1
(define-fun |clk_rst_mgr_n cpu_held| ((state |clk_rst_mgr_s|)) Bool (= ((_ extract 0 0) (|clk_rst_mgr#12| state)) #b1))
(define-fun |clk_rst_mgr#13| ((state |clk_rst_mgr_s|)) (_ BitVec 5) (ite (= ((_ extract 0 0) (|clk_rst_mgr#11| state)) #b1) (|clk_rst_mgr#6| state) #b00000)) ; \cpu_rst_counter
; yosys-smt2-wire cpu_rst_counter 5
(define-fun |clk_rst_mgr_n cpu_rst_counter| ((state |clk_rst_mgr_s|)) (_ BitVec 5) (|clk_rst_mgr#13| state))
(define-fun |clk_rst_mgr#14| ((state |clk_rst_mgr_s|)) (_ BitVec 1) (ite (= ((_ extract 0 0) (|clk_rst_mgr#11| state)) #b1) (|clk_rst_mgr#4| state) #b0)) ; \cpu_rst_n_o
; yosys-smt2-output cpu_rst_n_o 1
; yosys-smt2-wire cpu_rst_n_o 1
(define-fun |clk_rst_mgr_n cpu_rst_n_o| ((state |clk_rst_mgr_s|)) Bool (= ((_ extract 0 0) (|clk_rst_mgr#14| state)) #b1))
(declare-fun |clk_rst_mgr#15| (|clk_rst_mgr_s|) Bool) ; \rst_ni
; yosys-smt2-input rst_ni 1
; yosys-smt2-wire rst_ni 1
; yosys-smt2-witness {"offset": 0, "path": ["\\rst_ni"], "smtname": "rst_ni", "smtoffset": 0, "type": "input", "width": 1}
(define-fun |clk_rst_mgr_n rst_ni| ((state |clk_rst_mgr_s|)) Bool (|clk_rst_mgr#15| state))
(define-fun |clk_rst_mgr#16| ((state |clk_rst_mgr_s|)) (_ BitVec 2) (ite (= ((_ extract 0 0) (|clk_rst_mgr#11| state)) #b1) (|clk_rst_mgr#9| state) #b00)) ; \rst_sync
; yosys-smt2-wire rst_sync 2
(define-fun |clk_rst_mgr_n rst_sync| ((state |clk_rst_mgr_s|)) (_ BitVec 2) (|clk_rst_mgr#16| state))
(declare-fun |clk_rst_mgr#17| (|clk_rst_mgr_s|) Bool) ; \user_clock_i
; yosys-smt2-output sys_clk_o 1
; yosys-smt2-wire sys_clk_o 1
(define-fun |clk_rst_mgr_n sys_clk_o| ((state |clk_rst_mgr_s|)) Bool (|clk_rst_mgr#17| state))
; yosys-smt2-input user_clock_i 1
; yosys-smt2-wire user_clock_i 1
; yosys-smt2-witness {"offset": 0, "path": ["\\user_clock_i"], "smtname": "user_clock_i", "smtoffset": 0, "type": "input", "width": 1}
(define-fun |clk_rst_mgr_n user_clock_i| ((state |clk_rst_mgr_s|)) Bool (|clk_rst_mgr#17| state))
; yosys-smt2-input user_reset_n_i 1
; yosys-smt2-wire user_reset_n_i 1
; yosys-smt2-witness {"offset": 0, "path": ["\\user_reset_n_i"], "smtname": "user_reset_n_i", "smtoffset": 0, "type": "input", "width": 1}
(define-fun |clk_rst_mgr_n user_reset_n_i| ((state |clk_rst_mgr_s|)) Bool (= ((_ extract 0 0) (|clk_rst_mgr#11| state)) #b1))
(define-fun |clk_rst_mgr#18| ((state |clk_rst_mgr_s|)) (_ BitVec 1) (ite (|clk_rst_mgr#15| state) (|clk_rst_mgr#7| state) #b0)) ; \wb_ack_o
; yosys-smt2-output wb_ack_o 1
; yosys-smt2-wire wb_ack_o 1
(define-fun |clk_rst_mgr_n wb_ack_o| ((state |clk_rst_mgr_s|)) Bool (= ((_ extract 0 0) (|clk_rst_mgr#18| state)) #b1))
(declare-fun |clk_rst_mgr#19| (|clk_rst_mgr_s|) (_ BitVec 32)) ; \wb_adr_i
; yosys-smt2-input wb_adr_i 32
; yosys-smt2-wire wb_adr_i 32
; yosys-smt2-witness {"offset": 0, "path": ["\\wb_adr_i"], "smtname": "wb_adr_i", "smtoffset": 0, "type": "input", "width": 32}
(define-fun |clk_rst_mgr_n wb_adr_i| ((state |clk_rst_mgr_s|)) (_ BitVec 32) (|clk_rst_mgr#19| state))
(declare-fun |clk_rst_mgr#20| (|clk_rst_mgr_s|) Bool) ; \wb_cyc_i
; yosys-smt2-input wb_cyc_i 1
; yosys-smt2-wire wb_cyc_i 1
; yosys-smt2-witness {"offset": 0, "path": ["\\wb_cyc_i"], "smtname": "wb_cyc_i", "smtoffset": 0, "type": "input", "width": 1}
(define-fun |clk_rst_mgr_n wb_cyc_i| ((state |clk_rst_mgr_s|)) Bool (|clk_rst_mgr#20| state))
(declare-fun |clk_rst_mgr#21| (|clk_rst_mgr_s|) (_ BitVec 32)) ; \wb_dat_i
; yosys-smt2-input wb_dat_i 32
; yosys-smt2-wire wb_dat_i 32
; yosys-smt2-witness {"offset": 0, "path": ["\\wb_dat_i"], "smtname": "wb_dat_i", "smtoffset": 0, "type": "input", "width": 32}
(define-fun |clk_rst_mgr_n wb_dat_i| ((state |clk_rst_mgr_s|)) (_ BitVec 32) (|clk_rst_mgr#21| state))
(define-fun |clk_rst_mgr#22| ((state |clk_rst_mgr_s|)) (_ BitVec 3) (ite (|clk_rst_mgr#15| state) (|clk_rst_mgr#3| state) #b000)) ; \wb_dat_o [2:0]
; yosys-smt2-output wb_dat_o 32
; yosys-smt2-wire wb_dat_o 32
(define-fun |clk_rst_mgr_n wb_dat_o| ((state |clk_rst_mgr_s|)) (_ BitVec 32) (concat #b00000000000000000000000000000 (|clk_rst_mgr#22| state)))
; yosys-smt2-output wb_rst_n_o 1
; yosys-smt2-wire wb_rst_n_o 1
(define-fun |clk_rst_mgr_n wb_rst_n_o| ((state |clk_rst_mgr_s|)) Bool (= ((_ extract 1 1) (|clk_rst_mgr#16| state)) #b1))
(declare-fun |clk_rst_mgr#23| (|clk_rst_mgr_s|) (_ BitVec 4)) ; \wb_sel_i
; yosys-smt2-input wb_sel_i 4
; yosys-smt2-wire wb_sel_i 4
; yosys-smt2-witness {"offset": 0, "path": ["\\wb_sel_i"], "smtname": "wb_sel_i", "smtoffset": 0, "type": "input", "width": 4}
(define-fun |clk_rst_mgr_n wb_sel_i| ((state |clk_rst_mgr_s|)) (_ BitVec 4) (|clk_rst_mgr#23| state))
(declare-fun |clk_rst_mgr#24| (|clk_rst_mgr_s|) Bool) ; \wb_stb_i
; yosys-smt2-input wb_stb_i 1
; yosys-smt2-wire wb_stb_i 1
; yosys-smt2-witness {"offset": 0, "path": ["\\wb_stb_i"], "smtname": "wb_stb_i", "smtoffset": 0, "type": "input", "width": 1}
(define-fun |clk_rst_mgr_n wb_stb_i| ((state |clk_rst_mgr_s|)) Bool (|clk_rst_mgr#24| state))
(declare-fun |clk_rst_mgr#25| (|clk_rst_mgr_s|) Bool) ; \wb_we_i
; yosys-smt2-input wb_we_i 1
; yosys-smt2-wire wb_we_i 1
; yosys-smt2-witness {"offset": 0, "path": ["\\wb_we_i"], "smtname": "wb_we_i", "smtoffset": 0, "type": "input", "width": 1}
(define-fun |clk_rst_mgr_n wb_we_i| ((state |clk_rst_mgr_s|)) Bool (|clk_rst_mgr#25| state))
(define-fun |clk_rst_mgr#26| ((state |clk_rst_mgr_s|)) (_ BitVec 1) (ite (= ((_ extract 0 0) (|clk_rst_mgr#11| state)) #b1) (|clk_rst_mgr#5| state) #b0)) ; \wdg_reset_occurred
; yosys-smt2-wire wdg_reset_occurred 1
(define-fun |clk_rst_mgr_n wdg_reset_occurred| ((state |clk_rst_mgr_s|)) Bool (= ((_ extract 0 0) (|clk_rst_mgr#26| state)) #b1))
(declare-fun |clk_rst_mgr#27| (|clk_rst_mgr_s|) Bool) ; \wdg_rst_req_i
; yosys-smt2-input wdg_rst_req_i 1
; yosys-smt2-wire wdg_rst_req_i 1
; yosys-smt2-witness {"offset": 0, "path": ["\\wdg_rst_req_i"], "smtname": "wdg_rst_req_i", "smtoffset": 0, "type": "input", "width": 1}
(define-fun |clk_rst_mgr_n wdg_rst_req_i| ((state |clk_rst_mgr_s|)) Bool (|clk_rst_mgr#27| state))
(define-fun |clk_rst_mgr#28| ((state |clk_rst_mgr_s|)) (_ BitVec 1) (bvnot (ite (|clk_rst_mgr#10| state) #b1 #b0))) ; $auto$rtlil.cc:3255:Not$156
; yosys-smt2-assume 0 $auto$formalff.cc:987:execute$157
(define-fun |clk_rst_mgr_u 0| ((state |clk_rst_mgr_s|)) Bool (or (= ((_ extract 0 0) (|clk_rst_mgr#28| state)) #b1) (not true))) ; $auto$formalff.cc:987:execute$157
(define-fun |clk_rst_mgr#29| ((state |clk_rst_mgr_s|)) (_ BitVec 2) (ite (= ((_ extract 0 0) (|clk_rst_mgr#11| state)) #b1) (concat ((_ extract 0 0) (|clk_rst_mgr#16| state)) #b1) #b00)) ; $auto$rtlil.cc:3390:Mux$126
(define-fun |clk_rst_mgr#30| ((state |clk_rst_mgr_s|)) Bool (bvult (|clk_rst_mgr#13| state) #b10000)) ; $lt$clk_rst_mgr.v:70$7_Y
(define-fun |clk_rst_mgr#31| ((state |clk_rst_mgr_s|)) (_ BitVec 1) (ite (|clk_rst_mgr#30| state) #b1 #b0)) ; $procmux$27_Y
(define-fun |clk_rst_mgr#32| ((state |clk_rst_mgr_s|)) (_ BitVec 1) (ite (= ((_ extract 0 0) (|clk_rst_mgr#12| state)) #b1) (|clk_rst_mgr#31| state) #b0)) ; $procmux$29_Y
(define-fun |clk_rst_mgr#33| ((state |clk_rst_mgr_s|)) (_ BitVec 1) (ite (|clk_rst_mgr#27| state) #b1 (|clk_rst_mgr#32| state))) ; $procmux$32_Y
(define-fun |clk_rst_mgr#34| ((state |clk_rst_mgr_s|)) (_ BitVec 1) (ite (= ((_ extract 1 1) (|clk_rst_mgr#16| state)) #b1) (|clk_rst_mgr#33| state) #b1)) ; $0\cpu_held[0:0]
(define-fun |clk_rst_mgr#35| ((state |clk_rst_mgr_s|)) (_ BitVec 1) (ite (= ((_ extract 0 0) (|clk_rst_mgr#11| state)) #b1) (|clk_rst_mgr#34| state) #b1)) ; $auto$rtlil.cc:3390:Mux$128
(define-fun |clk_rst_mgr#36| ((state |clk_rst_mgr_s|)) Bool (and (or  (|clk_rst_mgr#20| state) false) (or  (|clk_rst_mgr#24| state) false))) ; $logic_and$clk_rst_mgr.v:98$13_Y
(define-fun |clk_rst_mgr#37| ((state |clk_rst_mgr_s|)) Bool (not (or  (= ((_ extract 0 0) (|clk_rst_mgr#18| state)) #b1) false))) ; $logic_not$clk_rst_mgr.v:98$14_Y
(define-fun |clk_rst_mgr#38| ((state |clk_rst_mgr_s|)) Bool (and (or  (|clk_rst_mgr#36| state) false) (or  (|clk_rst_mgr#37| state) false))) ; $logic_and$clk_rst_mgr.v:98$15_Y
(define-fun |clk_rst_mgr#39| ((state |clk_rst_mgr_s|)) (_ BitVec 1) (ite (|clk_rst_mgr#38| state) #b1 #b0)) ; $0\wb_ack_o[0:0]
(define-fun |clk_rst_mgr#40| ((state |clk_rst_mgr_s|)) (_ BitVec 1) (ite (|clk_rst_mgr#15| state) (|clk_rst_mgr#39| state) #b0)) ; $auto$rtlil.cc:3390:Mux$130
(define-fun |clk_rst_mgr#41| ((state |clk_rst_mgr_s|)) (_ BitVec 5) (bvadd (|clk_rst_mgr#13| state) #b00001)) ; $add$clk_rst_mgr.v:71$8_Y
(define-fun |clk_rst_mgr#42| ((state |clk_rst_mgr_s|)) (_ BitVec 5) (ite (|clk_rst_mgr#30| state) (|clk_rst_mgr#41| state) (|clk_rst_mgr#2| state))) ; $procmux$38_Y
(define-fun |clk_rst_mgr#43| ((state |clk_rst_mgr_s|)) (_ BitVec 5) (ite (= ((_ extract 0 0) (|clk_rst_mgr#12| state)) #b1) (|clk_rst_mgr#42| state) (|clk_rst_mgr#1| state))) ; $procmux$40_Y
(define-fun |clk_rst_mgr#44| ((state |clk_rst_mgr_s|)) (_ BitVec 5) (ite (|clk_rst_mgr#27| state) #b00000 (|clk_rst_mgr#43| state))) ; $procmux$43_Y
(define-fun |clk_rst_mgr#45| ((state |clk_rst_mgr_s|)) (_ BitVec 5) (ite (= ((_ extract 1 1) (|clk_rst_mgr#16| state)) #b1) (|clk_rst_mgr#44| state) #b00000)) ; $0\cpu_rst_counter[4:0]
(define-fun |clk_rst_mgr#46| ((state |clk_rst_mgr_s|)) Bool (distinct (concat (ite (|clk_rst_mgr#30| state) #b1 #b0) (concat ((_ extract 1 1) (|clk_rst_mgr#16| state)) (ite (|clk_rst_mgr#27| state) #b1 #b0))) #b010)) ; $auto$opt_dff.cc:234:make_patterns_logic$101
(define-fun |clk_rst_mgr#47| ((state |clk_rst_mgr_s|)) Bool (distinct (concat (|clk_rst_mgr#12| state) (concat ((_ extract 1 1) (|clk_rst_mgr#16| state)) (ite (|clk_rst_mgr#27| state) #b1 #b0))) #b010)) ; $auto$opt_dff.cc:234:make_patterns_logic$95
(define-fun |clk_rst_mgr#48| ((state |clk_rst_mgr_s|)) Bool (and  (|clk_rst_mgr#46| state) (|clk_rst_mgr#47| state))) ; $auto$opt_dff.cc:251:make_patterns_logic$103
(define-fun |clk_rst_mgr#49| ((state |clk_rst_mgr_s|)) (_ BitVec 5) (ite (|clk_rst_mgr#48| state) (|clk_rst_mgr#45| state) (|clk_rst_mgr#6| state))) ; $auto$rtlil.cc:3390:Mux$132
(define-fun |clk_rst_mgr#50| ((state |clk_rst_mgr_s|)) (_ BitVec 5) (ite (= ((_ extract 0 0) (|clk_rst_mgr#11| state)) #b1) (|clk_rst_mgr#49| state) #b00000)) ; $auto$rtlil.cc:3390:Mux$134
(define-fun |clk_rst_mgr#51| ((state |clk_rst_mgr_s|)) (_ BitVec 1) (ite (|clk_rst_mgr#27| state) #b1 (|clk_rst_mgr#5| state))) ; $auto$rtlil.cc:3390:Mux$136
(define-fun |clk_rst_mgr#52| ((state |clk_rst_mgr_s|)) (_ BitVec 1) (ite (= ((_ extract 0 0) (|clk_rst_mgr#11| state)) #b1) (|clk_rst_mgr#51| state) #b0)) ; $auto$rtlil.cc:3390:Mux$138
(define-fun |clk_rst_mgr#53| ((state |clk_rst_mgr_s|)) (_ BitVec 1) (ite (|clk_rst_mgr#30| state) #b0 #b1)) ; $procmux$49_Y
(define-fun |clk_rst_mgr#54| ((state |clk_rst_mgr_s|)) (_ BitVec 1) (ite (= ((_ extract 0 0) (|clk_rst_mgr#12| state)) #b1) (|clk_rst_mgr#53| state) (|clk_rst_mgr#0| state))) ; $procmux$51_Y
(define-fun |clk_rst_mgr#55| ((state |clk_rst_mgr_s|)) (_ BitVec 1) (ite (|clk_rst_mgr#27| state) #b0 (|clk_rst_mgr#54| state))) ; $procmux$54_Y
(define-fun |clk_rst_mgr#56| ((state |clk_rst_mgr_s|)) (_ BitVec 1) (ite (= ((_ extract 1 1) (|clk_rst_mgr#16| state)) #b1) (|clk_rst_mgr#55| state) #b0)) ; $0\cpu_rst_n_o[0:0]
(define-fun |clk_rst_mgr#57| ((state |clk_rst_mgr_s|)) (_ BitVec 1) (ite (|clk_rst_mgr#47| state) (|clk_rst_mgr#56| state) (|clk_rst_mgr#4| state))) ; $auto$rtlil.cc:3390:Mux$140
(define-fun |clk_rst_mgr#58| ((state |clk_rst_mgr_s|)) (_ BitVec 1) (ite (= ((_ extract 0 0) (|clk_rst_mgr#11| state)) #b1) (|clk_rst_mgr#57| state) #b0)) ; $auto$rtlil.cc:3390:Mux$142
(define-fun |clk_rst_mgr#59| ((state |clk_rst_mgr_s|)) Bool (not (or  (= ((_ extract 1 1) (|clk_rst_mgr#16| state)) #b1) false))) ; $logic_not$clk_rst_mgr.v:103$17_Y
(define-fun |clk_rst_mgr#60| ((state |clk_rst_mgr_s|)) (_ BitVec 1) (bvnot (ite (|clk_rst_mgr#25| state) #b1 #b0))) ; $auto$rtlil.cc:3255:Not$107
(define-fun |clk_rst_mgr#61| ((state |clk_rst_mgr_s|)) Bool (and  (= ((_ extract 0 0) (|clk_rst_mgr#60| state)) #b1) (|clk_rst_mgr#38| state))) ; $auto$opt_dff.cc:251:make_patterns_logic$108
(define-fun |clk_rst_mgr#62| ((state |clk_rst_mgr_s|)) (_ BitVec 3) (ite (|clk_rst_mgr#61| state) (concat (|clk_rst_mgr#26| state) (concat (|clk_rst_mgr#12| state) (ite (|clk_rst_mgr#59| state) #b1 #b0))) (|clk_rst_mgr#3| state))) ; $auto$rtlil.cc:3390:Mux$144
(define-fun |clk_rst_mgr#63| ((state |clk_rst_mgr_s|)) (_ BitVec 3) (ite (|clk_rst_mgr#15| state) (|clk_rst_mgr#62| state) #b000)) ; $auto$rtlil.cc:3390:Mux$146
(define-fun |clk_rst_mgr_a| ((state |clk_rst_mgr_s|)) Bool true)
(define-fun |clk_rst_mgr_u| ((state |clk_rst_mgr_s|)) Bool 
  (|clk_rst_mgr_u 0| state)
)
(define-fun |clk_rst_mgr_i| ((state |clk_rst_mgr_s|)) Bool true)
(define-fun |clk_rst_mgr_h| ((state |clk_rst_mgr_s|)) Bool true)
(define-fun |clk_rst_mgr_t| ((state |clk_rst_mgr_s|) (next_state |clk_rst_mgr_s|)) Bool (and
  (= (|clk_rst_mgr#29| state) (|clk_rst_mgr#9| next_state)) ; $procdff$93 \_witness_.anyinit_procdff_93
  (= (|clk_rst_mgr#35| state) (|clk_rst_mgr#8| next_state)) ; $procdff$88 \_witness_.anyinit_procdff_88
  (= (|clk_rst_mgr#40| state) (|clk_rst_mgr#7| next_state)) ; $procdff$68 \_witness_.anyinit_procdff_68
  (= (|clk_rst_mgr#50| state) (|clk_rst_mgr#6| next_state)) ; $auto$ff.cc:337:slice$98 \_witness_.anyinit_auto_ff_cc_337_slice_98
  (= (|clk_rst_mgr#52| state) (|clk_rst_mgr#5| next_state)) ; $auto$ff.cc:337:slice$97 \_witness_.anyinit_auto_ff_cc_337_slice_97
  (= (|clk_rst_mgr#58| state) (|clk_rst_mgr#4| next_state)) ; $auto$ff.cc:337:slice$94 \_witness_.anyinit_auto_ff_cc_337_slice_94
  (= (|clk_rst_mgr#63| state) (|clk_rst_mgr#3| next_state)) ; $auto$ff.cc:337:slice$110 \_witness_.anyinit_auto_ff_cc_337_slice_110
)) ; end of module clk_rst_mgr
; yosys-smt2-topmod clk_rst_mgr
; end of yosys output
